WARNING: for repeatability, setting FPU to use double precision
============================[ Problem Statistics ]=============================
|                                                                             |
|  Number of variables:         75159                                         |
|  Number of clauses:          256064                                         |
|  Parse time:                   0.07 s                                       |
|                                                                             |
c ============================[ Search Statistics ]==============================
c | Conflicts |          ORIGINAL         |          LEARNT          | Progress |
c |           |    Vars  Clauses Literals |    Limit  Clauses Lit/Cl |          |
c ===============================================================================
c Switched to VSIDS.
c Switched to LRB.
c Switched to VSIDS.
c Switched to LRB.
c Switched to VSIDS.
c Switched to LRB.
c Switched to VSIDS.
c Switched to LRB.
c Switched to VSIDS.
c Switched to LRB.
c Switched to VSIDS.
c Switched to LRB.
c Switched to VSIDS.
c Switched to LRB.
c Switched to VSIDS.
c Switched to LRB.
c Switched to VSIDS.
c Switched to LRB.
c Switched to VSIDS.
c Switched to LRB.
c Switched to VSIDS.
c Switched to LRB.
c Switched to VSIDS.
c Switched to LRB.
CAREFUL: the definition is falsified in conflict 5329884 at DL 508 (has happened 1 times)
c Switched to VSIDS.
c Switched to LRB.
c Switched to VSIDS.
c Switched to LRB.
c Switched to VSIDS.
c Switched to LRB.
c Switched to VSIDS.
c Switched to LRB.
c Switched to VSIDS.
c Switched to LRB.
c Switched to VSIDS.
c ===============================================================================
restarts                  : 69560
conflicts                 : 14222647       (4024 /sec)
decisions                 : 114452969      (0.00 % random) (32380 /sec)
propagations              : 8665354376     (2451502 /sec)
conflict literals         : 1080933611     (7.60 % deleted)

conflicts w/ DIP found    : 11925065       (83.85 % of conflicts)
conflicts w/ dangerous DIP: 2              (0.00 % of conflicts)
conflicts w/ DIP-learning : 182117         (1.28 % of conflicts)
decisions on ext vars     : 4545411        (3.97 % of decisions)
total ext vars            : 17728       
tried delete ext vars     : 4           
deleted ext vars          : 4           
max ext vars              : 17724       

Memory used               : 763.00 MB
CPU time                  : 3534.71 s
DIP computation time      : 107.61 s (3.04 % of total time)
ER_sel time               : 19.7374 s
ER_add time               : 0.084276 s
ER_delC time              : 0 s
ER_delV time              : 0.001382 s
ER_sub time               : 24.3804 s
ER_stat time              : 0 s

INDETERMINATE
